! TOUCHSTONE file generated by CST MICROWAVE STUDIO
! Date and time: Thu Oct  8 19:25:58 2026
! Project name: InsetFed_PatchAntenna_2p45GHz_CST_TD.cst
! Parameters = {FedL=23.585; CutW=5; PatY=-14.415; Inset=8; FedW=3; PatL=28.54; PatW=37.26; CuH=0.035; SubH=1.6; SubL=60; SubW=50}
! Header version: 2024
! Port assignment regex: !\s*Touchstone port\s*([0-9]+)\s*=\s*(CST MWS port|CST DES external port|CST DES block port)\s*(.+)\s* \(\"(.*)\"\)(\s*mode\s*([0-9]+))?.*
! Touchstone port assignment:
! Touchstone port 1 = CST MWS port 1 ("")
# GHz S RI R 50
2                      0.6730334      -0.6372989
2.001                  0.6714659      -0.6388602
2.002                  0.6698953      -0.6404313
2.003                  0.6683207      -0.6420124
2.004                  0.6667412      -0.6436034
2.005                  0.6651561      -0.6452043
2.006                  0.6635645      -0.6468149
2.007                  0.6619654      -0.6484351
2.008                  0.6603579      -0.6500646
2.009                  0.6587414      -0.6517033
2.01                   0.6571151      -0.6533508
2.011                  0.6554784      -0.6550066
2.012                  0.6538302      -0.6566704
2.013                  0.6521701      -0.6583418
2.014                  0.6504973      -0.6600204
2.015                   0.648811      -0.6617054
2.016                  0.6471109      -0.6633965
2.017                  0.6453964      -0.6650931
2.018                  0.6436667      -0.6667945
2.019                  0.6419216         -0.6685
2.02                   0.6401606      -0.6702092
2.021                  0.6383832      -0.6719211
2.022                  0.6365891      -0.6736351
2.023                  0.6347779      -0.6753506
2.024                  0.6329495      -0.6770667
2.025                  0.6311035      -0.6787829
2.026                  0.6292399      -0.6804982
2.027                  0.6273584       -0.682212
2.028                  0.6254591      -0.6839235
2.029                  0.6235417      -0.6856319
2.03                   0.6216063      -0.6873364
2.031                  0.6196532      -0.6890364
2.032                  0.6176819      -0.6907311
2.033                  0.6156932      -0.6924198
2.034                  0.6136869      -0.6941018
2.035                  0.6116633      -0.6957763
2.036                  0.6096225      -0.6974428
2.037                  0.6075651      -0.6991005
2.038                  0.6054911      -0.7007489
2.039                  0.6034009      -0.7023873
2.04                   0.6012954       -0.704015
2.041                  0.5991741      -0.7056318
2.042                  0.5970383      -0.7072368
2.043                   0.594888      -0.7088296
2.044                  0.5927237      -0.7104101
2.045                  0.5905465      -0.7119771
2.046                  0.5883557      -0.7135314
2.047                  0.5861534      -0.7150713
2.048                  0.5839391      -0.7165975
2.049                  0.5817137      -0.7181093
2.05                   0.5794777      -0.7196066
2.051                  0.5772321      -0.7210889
2.052                   0.574977      -0.7225565
2.053                  0.5727131       -0.724009
2.054                  0.5704411      -0.7254465
2.055                  0.5681618      -0.7268686
2.056                  0.5658756      -0.7282756
2.057                  0.5635832      -0.7296674
2.058                  0.5612853      -0.7310441
2.059                  0.5589824      -0.7324056
2.06                   0.5566742      -0.7337528
2.061                  0.5543628      -0.7350848
2.062                  0.5520477      -0.7364025
2.063                  0.5497301      -0.7377057
2.064                  0.5474093      -0.7389955
2.065                  0.5450875      -0.7402709
2.066                  0.5427632      -0.7415337
2.067                  0.5404386       -0.742783
2.068                   0.538113      -0.7440199
2.069                  0.5357878       -0.745244
2.07                   0.5334622      -0.7464565
2.071                   0.531137      -0.7476578
2.072                  0.5288121      -0.7488483
2.073                  0.5264888      -0.7500277
2.074                  0.5241663      -0.7511975
2.075                  0.5218453      -0.7523575
2.076                  0.5195255      -0.7535087
2.077                  0.5172076      -0.7546511
2.078                  0.5148913      -0.7557856
2.079                  0.5125767      -0.7569124
2.08                   0.5102638      -0.7580323
2.081                  0.5079528      -0.7591457
2.082                  0.5056435      -0.7602528
2.083                  0.5033359      -0.7613546
2.084                  0.5010296      -0.7624512
2.085                  0.4987247      -0.7635432
2.086                   0.496421      -0.7646312
2.087                  0.4941184      -0.7657154
2.088                  0.4918163      -0.7667963
2.089                   0.489515      -0.7678745
2.09                   0.4872137      -0.7689502
2.091                  0.4849123      -0.7700238
2.092                  0.4826106      -0.7710957
2.093                  0.4803078      -0.7721663
2.094                  0.4780041      -0.7732358
2.095                  0.4756988      -0.7743044
2.096                  0.4733914      -0.7753727
2.097                  0.4710815      -0.7764407
2.098                  0.4687687      -0.7775085
2.099                  0.4664527      -0.7785764
2.1                    0.4641326      -0.7796445
2.101                  0.4618084      -0.7807132
2.102                  0.4594792      -0.7817822
2.103                  0.4571449      -0.7828517
2.104                  0.4548048      -0.7839217
2.105                  0.4524583      -0.7849922
2.106                  0.4501053      -0.7860633
2.107                  0.4477448      -0.7871347
2.108                  0.4453765      -0.7882065
2.109                      0.443      -0.7892784
2.11                   0.4406146      -0.7903505
2.111                  0.4382203      -0.7914224
2.112                  0.4358159       -0.792494
2.113                  0.4334016       -0.793565
2.114                  0.4309766      -0.7946352
2.115                  0.4285409      -0.7957042
2.116                  0.4260936      -0.7967718
2.117                  0.4236346      -0.7978376
2.118                  0.4211633      -0.7989014
2.119                  0.4186798      -0.7999625
2.12                   0.4161833      -0.8010209
2.121                  0.4136735      -0.8020759
2.122                  0.4111506      -0.8031272
2.123                  0.4086137      -0.8041743
2.124                  0.4060631      -0.8052167
2.125                  0.4034985      -0.8062541
2.126                  0.4009195       -0.807286
2.127                   0.398326      -0.8083116
2.128                   0.395718      -0.8093308
2.129                  0.3930953       -0.810343
2.13                   0.3904579      -0.8113475
2.131                  0.3878055      -0.8123441
2.132                  0.3851385       -0.813332
2.133                  0.3824567      -0.8143109
2.134                    0.37976      -0.8152801
2.135                  0.3770486      -0.8162394
2.136                  0.3743227      -0.8171881
2.137                  0.3715819      -0.8181257
2.138                  0.3688267       -0.819052
2.139                  0.3660576      -0.8199661
2.14                   0.3632743      -0.8208679
2.141                   0.360477      -0.8217568
2.142                  0.3576663      -0.8226324
2.143                  0.3548421      -0.8234944
2.144                  0.3520046      -0.8243423
2.145                  0.3491544      -0.8251756
2.146                  0.3462914      -0.8259943
2.147                  0.3434162      -0.8267978
2.148                  0.3405293      -0.8275858
2.149                  0.3376306      -0.8283581
2.15                   0.3347206      -0.8291143
2.151                  0.3317997      -0.8298544
2.152                  0.3288683      -0.8305778
2.153                  0.3259267      -0.8312846
2.154                  0.3229753      -0.8319746
2.155                  0.3200144      -0.8326476
2.156                  0.3170445      -0.8333033
2.157                  0.3140661      -0.8339417
2.158                  0.3110794      -0.8345628
2.159                  0.3080845      -0.8351663
2.16                   0.3050824      -0.8357526
2.161                  0.3020732      -0.8363212
2.162                  0.2990571      -0.8368725
2.163                  0.2960344      -0.8374063
2.164                  0.2930056      -0.8379225
2.165                  0.2899714      -0.8384216
2.166                  0.2869315      -0.8389033
2.167                  0.2838869      -0.8393679
2.168                  0.2808371      -0.8398155
2.169                  0.2777828      -0.8402461
2.17                   0.2747245        -0.84066
2.171                  0.2716621      -0.8410575
2.172                  0.2685957      -0.8414385
2.173                  0.2655258      -0.8418033
2.174                  0.2624525      -0.8421521
2.175                   0.259376      -0.8424852
2.176                  0.2562966      -0.8428027
2.177                   0.253214       -0.843105
2.178                  0.2501288      -0.8433921
2.179                  0.2470408      -0.8436645
2.18                     0.24395      -0.8439223
2.181                  0.2408566      -0.8441657
2.182                  0.2377605       -0.844395
2.183                   0.234662      -0.8446105
2.184                  0.2315608      -0.8448123
2.185                  0.2284565      -0.8450008
2.186                  0.2253499      -0.8451762
2.187                  0.2222401      -0.8453386
2.188                  0.2191274      -0.8454883
2.189                  0.2160114      -0.8456254
2.19                   0.2128924      -0.8457503
2.191                  0.2097699      -0.8458631
2.192                  0.2066433       -0.845964
2.193                  0.2035132      -0.8460528
2.194                  0.2003788      -0.8461301
2.195                  0.1972402      -0.8461958
2.196                  0.1940967      -0.8462501
2.197                  0.1909486      -0.8462929
2.198                  0.1877953      -0.8463244
2.199                  0.1846362      -0.8463446
2.2                    0.1814715      -0.8463536
2.201                  0.1783007      -0.8463513
2.202                  0.1751233      -0.8463376
2.203                  0.1719392      -0.8463127
2.204                  0.1687479      -0.8462763
2.205                  0.1655492      -0.8462283
2.206                  0.1623428      -0.8461687
2.207                   0.159128      -0.8460974
2.208                  0.1559048      -0.8460138
2.209                  0.1526728      -0.8459184
2.21                   0.1494313      -0.8458104
2.211                  0.1461805      -0.8456898
2.212                  0.1429198      -0.8455563
2.213                  0.1396488      -0.8454096
2.214                  0.1363674      -0.8452494
2.215                   0.133075      -0.8450753
2.216                  0.1297719      -0.8448869
2.217                  0.1264569      -0.8446839
2.218                  0.1231305       -0.844466
2.219                  0.1197923      -0.8442326
2.22                   0.1164417      -0.8439832
2.221                  0.1130787      -0.8437175
2.222                  0.1097034       -0.843435
2.223                   0.106315      -0.8431351
2.224                  0.1029138      -0.8428173
2.225                 0.09949951      -0.8424811
2.226                 0.09607219       -0.842126
2.227                 0.09263138      -0.8417514
2.228                   0.089177      -0.8413567
2.229                 0.08570959      -0.8409413
2.23                  0.08222849      -0.8405047
2.231                 0.07873406      -0.8400463
2.232                 0.07522624      -0.8395653
2.233                 0.07170463      -0.8390614
2.234                    0.06817      -0.8385339
2.235                 0.06462213      -0.8379819
2.236                 0.06106085      -0.8374052
2.237                 0.05748675      -0.8368029
2.238                 0.05390008      -0.8361745
2.239                 0.05030045      -0.8355194
2.24                  0.04668852       -0.834837
2.241                 0.04306453      -0.8341267
2.242                 0.03942836      -0.8333877
2.243                 0.03578049      -0.8326197
2.244                 0.03212161       -0.831822
2.245                  0.0284516       -0.830994
2.246                 0.02477079      -0.8301352
2.247                 0.02107968      -0.8292451
2.248                 0.01737882      -0.8283231
2.249                 0.01366834      -0.8273686
2.25                 0.009948775      -0.8263813
2.251                0.006220499      -0.8253605
2.252                0.002484073       -0.824306
2.253               -0.001260324       -0.823217
2.254               -0.005011717      -0.8220932
2.255               -0.008769909      -0.8209343
2.256                 -0.0125345      -0.8197397
2.257                -0.01630487      -0.8185092
2.258                -0.02008043      -0.8172421
2.259                -0.02386074      -0.8159385
2.26                 -0.02764537      -0.8145979
2.261                -0.03143369      -0.8132198
2.262                -0.03522507       -0.811804
2.263                -0.03901923      -0.8103502
2.264                -0.04281535      -0.8088583
2.265                -0.04661296      -0.8073279
2.266                -0.05041197      -0.8057588
2.267                -0.05421097      -0.8041508
2.268                -0.05801023      -0.8025036
2.269                -0.06180888      -0.8008171
2.27                 -0.06560645      -0.7990912
2.271                -0.06940226      -0.7973255
2.272                  -0.073196      -0.7955201
2.273                -0.07698736      -0.7936748
2.274                -0.08077546      -0.7917894
2.275                   -0.08456      -0.7898639
2.276                -0.08834043      -0.7878981
2.277                -0.09211647       -0.785892
2.278                -0.09588756      -0.7838452
2.279                 -0.0996532       -0.781758
2.28                  -0.1034131        -0.77963
2.281                 -0.1071666      -0.7774614
2.282                 -0.1109136      -0.7752519
2.283                 -0.1146532      -0.7730014
2.284                 -0.1183856        -0.77071
2.285                 -0.1221106      -0.7683774
2.286                 -0.1258273      -0.7660036
2.287                 -0.1295354      -0.7635886
2.288                 -0.1332345      -0.7611321
2.289                 -0.1369245      -0.7586341
2.29                   -0.140605      -0.7560945
2.291                 -0.1442758       -0.753513
2.292                 -0.1479364      -0.7508894
2.293                 -0.1515868      -0.7482238
2.294                 -0.1552262      -0.7455159
2.295                 -0.1588547      -0.7427654
2.296                  -0.162472      -0.7399722
2.297                 -0.1660774      -0.7371361
2.298                 -0.1696714      -0.7342567
2.299                 -0.1732528      -0.7313339
2.3                   -0.1768216      -0.7283674
2.301                 -0.1803782      -0.7253566
2.302                 -0.1839213      -0.7223016
2.303                  -0.187451      -0.7192019
2.304                 -0.1909671      -0.7160568
2.305                 -0.1944691      -0.7128664
2.306                 -0.1979566      -0.7096301
2.307                 -0.2014295      -0.7063472
2.308                 -0.2048872      -0.7030175
2.309                 -0.2083289      -0.6996407
2.31                  -0.2117548       -0.696216
2.311                 -0.2151645      -0.6927429
2.312                  -0.218557      -0.6892209
2.313                 -0.2219322      -0.6856495
2.314                 -0.2252895      -0.6820281
2.315                 -0.2286282      -0.6783559
2.316                 -0.2319474      -0.6746327
2.317                 -0.2352474      -0.6708573
2.318                 -0.2385266      -0.6670296
2.319                 -0.2417846      -0.6631487
2.32                  -0.2450209       -0.659214
2.321                 -0.2482345      -0.6552246
2.322                 -0.2514244      -0.6511801
2.323                 -0.2545897      -0.6470798
2.324                 -0.2577301      -0.6429228
2.325                 -0.2608438      -0.6387085
2.326                 -0.2639305      -0.6344361
2.327                 -0.2669884      -0.6301052
2.328                 -0.2700171      -0.6257147
2.329                 -0.2730147      -0.6212643
2.33                  -0.2759807      -0.6167531
2.331                  -0.278913      -0.6121807
2.332                  -0.281811      -0.6075461
2.333                 -0.2846728      -0.6028489
2.334                 -0.2874971      -0.5980884
2.335                 -0.2902823      -0.5932643
2.336                 -0.2930267      -0.5883759
2.337                 -0.2957294      -0.5834223
2.338                 -0.2983878      -0.5784037
2.339                 -0.3010002      -0.5733193
2.34                  -0.3035658      -0.5681684
2.341                 -0.3060814      -0.5629513
2.342                 -0.3085462      -0.5576673
2.343                 -0.3109574      -0.5523162
2.344                 -0.3133138      -0.5468977
2.345                 -0.3156126      -0.5414118
2.346                 -0.3178519      -0.5358584
2.347                 -0.3200297      -0.5302374
2.348                 -0.3221436      -0.5245489
2.349                 -0.3241913      -0.5187931
2.35                   -0.326171      -0.5129699
2.351                 -0.3280797      -0.5070798
2.352                 -0.3299152      -0.5011232
2.353                 -0.3316754      -0.4951002
2.354                 -0.3333576      -0.4890115
2.355                 -0.3349594      -0.4828577
2.356                 -0.3364783      -0.4766394
2.357                 -0.3379116      -0.4703574
2.358                  -0.339257      -0.4640126
2.359                 -0.3405121      -0.4576058
2.36                  -0.3416739      -0.4511383
2.361                   -0.34274      -0.4446109
2.362                 -0.3437081      -0.4380251
2.363                 -0.3445752      -0.4313822
2.364                 -0.3453389      -0.4246836
2.365                 -0.3459967      -0.4179309
2.366                 -0.3465459      -0.4111257
2.367                  -0.346984      -0.4042698
2.368                 -0.3473088      -0.3973651
2.369                 -0.3475174      -0.3904134
2.37                  -0.3476075       -0.383417
2.371                 -0.3475768      -0.3763778
2.372                 -0.3474226      -0.3692985
2.373                 -0.3471427      -0.3621813
2.374                 -0.3467351      -0.3550285
2.375                  -0.346197       -0.347843
2.376                 -0.3455267      -0.3406273
2.377                 -0.3447218      -0.3333844
2.378                 -0.3437803       -0.326117
2.379                 -0.3427003      -0.3188283
2.38                  -0.3414799      -0.3115214
2.381                 -0.3401171      -0.3041993
2.382                 -0.3386104      -0.2968655
2.383                 -0.3369579      -0.2895233
2.384                 -0.3351581      -0.2821762
2.385                 -0.3332098      -0.2748277
2.386                 -0.3311112      -0.2674816
2.387                 -0.3288614      -0.2601414
2.388                 -0.3264589       -0.252811
2.389                 -0.3239031      -0.2454943
2.39                  -0.3211927      -0.2381951
2.391                 -0.3183272      -0.2309175
2.392                 -0.3153056      -0.2236655
2.393                 -0.3121276      -0.2164433
2.394                 -0.3087927      -0.2092549
2.395                 -0.3053006      -0.2021046
2.396                 -0.3016511      -0.1949966
2.397                 -0.2978442      -0.1879352
2.398                 -0.2938802      -0.1809247
2.399                 -0.2897592      -0.1739693
2.4                   -0.2854815      -0.1670736
2.401                 -0.2810477      -0.1602418
2.402                 -0.2764587      -0.1534784
2.403                  -0.271715      -0.1467876
2.404                 -0.2668178       -0.140174
2.405                 -0.2617683      -0.1336416
2.406                 -0.2565676      -0.1271952
2.407                 -0.2512171      -0.1208389
2.408                 -0.2457186      -0.1145771
2.409                 -0.2400736       -0.108414
2.41                  -0.2342841      -0.1023538
2.411                 -0.2283521     -0.09640092
2.412                 -0.2222797      -0.0905594
2.413                 -0.2160693     -0.08483327
2.414                 -0.2097232     -0.07922669
2.415                 -0.2032442     -0.07374358
2.416                 -0.1966349     -0.06838788
2.417                 -0.1898981     -0.06316347
2.418                 -0.1830369     -0.05807406
2.419                 -0.1760544     -0.05312335
2.42                  -0.1689539     -0.04831487
2.421                 -0.1617388     -0.04365217
2.422                 -0.1544124      -0.0391386
2.423                 -0.1469786      -0.0347775
2.424                  -0.139441     -0.03057198
2.425                 -0.1318034     -0.02652514
2.426                 -0.1240699     -0.02263984
2.427                 -0.1162444       -0.018919
2.428                 -0.1083312     -0.01536527
2.429                 -0.1003345     -0.01198116
2.43                 -0.09225851    -0.008769153
2.431                 -0.0841078    -0.005731526
2.432                -0.07588682    -0.002870413
2.433                -0.06760014   -0.0001878075
2.434                -0.05925239     0.002314428
2.435                -0.05084828     0.004634565
2.436                -0.04239255     0.006771094
2.437                -0.03389002     0.008722572
2.438                -0.02534552      0.01048778
2.439                -0.01676396      0.01206562
2.44                -0.008150257      0.01345516
2.441               0.0004906415      0.01465562
2.442                0.009153768      0.01566641
2.443                 0.01783414      0.01648706
2.444                 0.02652675       0.0171173
2.445                 0.03522661      0.01755698
2.446                 0.04392872      0.01780614
2.447                  0.0526281      0.01786499
2.448                 0.06131978      0.01773387
2.449                  0.0699988      0.01741329
2.45                  0.07866024      0.01690393
2.451                 0.08729922      0.01620661
2.452                 0.09591087      0.01532233
2.453                  0.1044904      0.01425221
2.454                   0.113033      0.01299754
2.455                   0.121534      0.01155976
2.456                  0.1299889     0.009940452
2.457                  0.1383929     0.008141346
2.458                  0.1467415      0.00616431
2.459                  0.1550304     0.004011347
2.46                   0.1632552       0.0016846
2.461                  0.1714117   -0.0008136613
2.462                  0.1794955    -0.003481039
2.463                  0.1875028     -0.00631501
2.464                  0.1954295    -0.009312935
2.465                  0.2032716     -0.01247206
2.466                  0.2110255     -0.01578951
2.467                  0.2186875     -0.01926232
2.468                   0.226254     -0.02288741
2.469                  0.2337216     -0.02666161
2.47                    0.241087     -0.03058165
2.471                   0.248347     -0.03464419
2.472                  0.2554985     -0.03884579
2.473                  0.2625385     -0.04318294
2.474                  0.2694643     -0.04765206
2.475                  0.2762733     -0.05224949
2.476                  0.2829627     -0.05697152
2.477                  0.2895303     -0.06181441
2.478                  0.2959737     -0.06677431
2.479                  0.3022909     -0.07184737
2.48                   0.3084798     -0.07702968
2.481                  0.3145385     -0.08231732
2.482                  0.3204654      -0.0877063
2.483                  0.3262587     -0.09319264
2.484                  0.3319173     -0.09877235
2.485                  0.3374396      -0.1044414
2.486                  0.3428245      -0.1101957
2.487                  0.3480709      -0.1160313
2.488                  0.3531781      -0.1219441
2.489                  0.3581451      -0.1279301
2.49                   0.3629715      -0.1339854
2.491                  0.3676566      -0.1401058
2.492                  0.3722002      -0.1462875
2.493                  0.3766019      -0.1525265
2.494                  0.3808616      -0.1588188
2.495                  0.3849794      -0.1651606
2.496                  0.3889553      -0.1715481
2.497                  0.3927897      -0.1779775
2.498                  0.3964829      -0.1844449
2.499                  0.4000353      -0.1909468
2.5                    0.4034476      -0.1974795
2.501                  0.4067203      -0.2040393
2.502                  0.4098544      -0.2106228
2.503                  0.4128507      -0.2172266
2.504                  0.4157102      -0.2238471
2.505                   0.418434      -0.2304812
2.506                  0.4210231      -0.2371256
2.507                   0.423479      -0.2437771
2.508                  0.4258029      -0.2504326
2.509                  0.4279962      -0.2570892
2.51                   0.4300604      -0.2637439
2.511                  0.4319971      -0.2703938
2.512                  0.4338079      -0.2770362
2.513                  0.4354944      -0.2836685
2.514                  0.4370584      -0.2902881
2.515                  0.4385017      -0.2968924
2.516                  0.4398262      -0.3034792
2.517                  0.4410336       -0.310046
2.518                  0.4421259      -0.3165908
2.519                  0.4431052      -0.3231112
2.52                   0.4439733      -0.3296055
2.521                  0.4447323      -0.3360714
2.522                  0.4453842      -0.3425074
2.523                  0.4459312      -0.3489115
2.524                  0.4463752      -0.3552821
2.525                  0.4467185      -0.3616177
2.526                   0.446963      -0.3679168
2.527                   0.447111      -0.3741779
2.528                  0.4471644      -0.3803998
2.529                  0.4471255      -0.3865811
2.53                   0.4469963      -0.3927209
2.531                   0.446779       -0.398818
2.532                  0.4464757      -0.4048713
2.533                  0.4460884      -0.4108802
2.534                  0.4456192      -0.4168437
2.535                  0.4450701       -0.422761
2.536                  0.4444432      -0.4286314
2.537                  0.4437406      -0.4344546
2.538                  0.4429641      -0.4402297
2.539                  0.4421157      -0.4459563
2.54                   0.4411973      -0.4516342
2.541                  0.4402109      -0.4572628
2.542                  0.4391584       -0.462842
2.543                  0.4380414      -0.4683715
2.544                  0.4368618      -0.4738511
2.545                  0.4356214      -0.4792807
2.546                  0.4343219      -0.4846601
2.547                  0.4329648      -0.4899895
2.548                   0.431552      -0.4952689
2.549                  0.4300849      -0.5004981
2.55                   0.4285651      -0.5056773
2.551                  0.4269941      -0.5108069
2.552                  0.4253735      -0.5158867
2.553                  0.4237045      -0.5209169
2.554                  0.4219884       -0.525898
2.555                  0.4202269      -0.5308301
2.556                   0.418421      -0.5357134
2.557                   0.416572      -0.5405483
2.558                  0.4146812      -0.5453351
2.559                  0.4127495       -0.550074
2.56                   0.4107783      -0.5547655
2.561                  0.4087686      -0.5594098
2.562                  0.4067213      -0.5640073
2.563                  0.4046376      -0.5685585
2.564                  0.4025183      -0.5730636
2.565                  0.4003644      -0.5775231
2.566                  0.3981766      -0.5819374
2.567                  0.3959561      -0.5863068
2.568                  0.3937034      -0.5906317
2.569                  0.3914194      -0.5949125
2.57                   0.3891047      -0.5991495
2.571                  0.3867602      -0.6033432
2.572                  0.3843865      -0.6074939
2.573                  0.3819843       -0.611602
2.574                  0.3795542      -0.6156678
2.575                  0.3770967      -0.6196916
2.576                  0.3746127      -0.6236738
2.577                  0.3721023      -0.6276147
2.578                  0.3695663      -0.6315146
2.579                  0.3670053      -0.6353739
2.58                   0.3644195      -0.6391928
2.581                  0.3618098      -0.6429715
2.582                  0.3591761      -0.6467105
2.583                  0.3565196      -0.6504097
2.584                  0.3538398      -0.6540696
2.585                  0.3511378      -0.6576904
2.586                   0.348414      -0.6612722
2.587                  0.3456687      -0.6648153
2.588                  0.3429021      -0.6683198
2.589                  0.3401147       -0.671786
2.59                   0.3373071      -0.6752139
2.591                  0.3344795      -0.6786037
2.592                  0.3316324      -0.6819557
2.593                  0.3287659        -0.68527
2.594                  0.3258807      -0.6885463
2.595                  0.3229772      -0.6917851
2.596                  0.3200559      -0.6949863
2.597                  0.3171161      -0.6981505
2.598                  0.3141597      -0.7012771
2.599                  0.3111863      -0.7043665
2.6                    0.3081961      -0.7074189
2.601                  0.3051901      -0.7104341
2.602                   0.302168      -0.7134125
2.603                  0.2991309      -0.7163538
2.604                  0.2960786      -0.7192584
2.605                  0.2930122       -0.722126
2.606                  0.2899317      -0.7249569
2.607                  0.2868375      -0.7277512
2.608                  0.2837302      -0.7305087
2.609                    0.28061      -0.7332298
2.61                   0.2774777      -0.7359143
2.611                  0.2743335      -0.7385625
2.612                  0.2711783      -0.7411741
2.613                  0.2680115      -0.7437498
2.614                  0.2648346      -0.7462892
2.615                  0.2616478      -0.7487925
2.616                  0.2584513      -0.7512599
2.617                  0.2552459      -0.7536914
2.618                  0.2520317      -0.7560872
2.619                  0.2488096      -0.7584474
2.62                     0.24558      -0.7607722
2.621                  0.2423436      -0.7630616
2.622                  0.2391002       -0.765316
2.623                  0.2358506      -0.7675354
2.624                  0.2325958      -0.7697201
2.625                  0.2293355      -0.7718702
2.626                  0.2260707      -0.7739859
2.627                  0.2228014      -0.7760677
2.628                  0.2195288      -0.7781155
2.629                   0.216253      -0.7801296
2.63                   0.2129744      -0.7821103
2.631                  0.2096936       -0.784058
2.632                  0.2064108      -0.7859729
2.633                  0.2031263      -0.7878554
2.634                  0.1998415      -0.7897056
2.635                  0.1965553      -0.7915241
2.636                  0.1932702      -0.7933108
2.637                  0.1899845      -0.7950665
2.638                  0.1866995      -0.7967914
2.639                  0.1834159      -0.7984858
2.64                   0.1801333      -0.8001502
2.641                  0.1768531      -0.8017849
2.642                  0.1735744      -0.8033904
2.643                  0.1702987      -0.8049669
2.644                  0.1670254      -0.8065149
2.645                  0.1637554       -0.808035
2.646                  0.1604889      -0.8095274
2.647                  0.1572259      -0.8109927
2.648                  0.1539668      -0.8124312
2.649                  0.1507118      -0.8138434
2.65                   0.1474612      -0.8152297
2.651                  0.1442151      -0.8165906
2.652                  0.1409739      -0.8179265
2.653                  0.1377374      -0.8192379
2.654                  0.1345059      -0.8205253
2.655                  0.1312797       -0.821789
2.656                  0.1280587      -0.8230295
2.657                  0.1248429      -0.8242471
2.658                  0.1216329      -0.8254426
2.659                  0.1184281       -0.826616
2.66                    0.115229      -0.8277681
2.661                  0.1120355      -0.8288991
2.662                  0.1088476      -0.8300093
2.663                  0.1056653      -0.8310995
2.664                  0.1024885      -0.8321697
2.665                 0.09931716      -0.8332204
2.666                 0.09615127      -0.8342521
2.667                 0.09299122       -0.835265
2.668                 0.08983617      -0.8362597
2.669                  0.0866865      -0.8372362
2.67                  0.08354219       -0.838195
2.671                 0.08040276      -0.8391364
2.672                  0.0772682      -0.8400609
2.673                 0.07413863      -0.8409684
2.674                 0.07101379      -0.8418595
2.675                 0.06789342      -0.8427341
2.676                 0.06477725      -0.8435929
2.677                  0.0616658      -0.8444358
2.678                 0.05855797      -0.8452631
2.679                  0.0554545      -0.8460751
2.68                  0.05235449      -0.8468718
2.681                 0.04925824      -0.8476534
2.682                 0.04616546      -0.8484201
2.683                 0.04307604      -0.8491721
2.684                 0.03998948      -0.8499094
2.685                 0.03690586      -0.8506323
2.686                 0.03382509      -0.8513405
2.687                 0.03074665      -0.8520345
2.688                 0.02767103      -0.8527141
2.689                  0.0245975      -0.8533795
2.69                  0.02152616      -0.8540304
2.691                 0.01845669      -0.8546674
2.692                 0.01538916        -0.85529
2.693                 0.01232347      -0.8558983
2.694                0.009259086      -0.8564924
2.695                0.006196294      -0.8570722
2.696                0.003134977      -0.8576377
2.697               7.481156e-05      -0.8581888
2.698               -0.002984116      -0.8587255
2.699                -0.00604172      -0.8592477
2.7                  -0.00909832      -0.8597553
2.701                -0.01215403      -0.8602483
2.702                -0.01520857      -0.8607264
2.703                -0.01826224      -0.8611897
2.704                -0.02131496      -0.8616381
2.705                -0.02436664      -0.8620714
2.706                -0.02741758      -0.8624896
2.707                -0.03046709      -0.8628926
2.708                -0.03351588      -0.8632802
2.709                -0.03656344      -0.8636523
2.71                 -0.03961008      -0.8640088
2.711                 -0.0426553      -0.8643498
2.712                -0.04569919      -0.8646749
2.713                -0.04874166      -0.8649842
2.714                -0.05178259      -0.8652775
2.715                -0.05482188      -0.8655549
2.716                -0.05785921      -0.8658159
2.717                 -0.0608949      -0.8660609
2.718                -0.06392799      -0.8662896
2.719                -0.06695922      -0.8665019
2.72                 -0.06998785      -0.8666978
2.721                -0.07301377      -0.8668773
2.722                -0.07603687      -0.8670403
2.723                -0.07905683       -0.867187
2.724                -0.08207375      -0.8673169
2.725                -0.08508711      -0.8674306
2.726                -0.08809658      -0.8675275
2.727                -0.09110247      -0.8676081
2.728                -0.09410387      -0.8676723
2.729                -0.09710106      -0.8677201
2.73                  -0.1000937      -0.8677514
2.731                 -0.1030816      -0.8677665
2.732                 -0.1060641      -0.8677655
2.733                 -0.1090415      -0.8677484
2.734                 -0.1120131      -0.8677153
2.735                 -0.1149792      -0.8676664
2.736                 -0.1179391      -0.8676016
2.737                 -0.1208927      -0.8675213
2.738                 -0.1238401      -0.8674257
2.739                 -0.1267807      -0.8673148
2.74                  -0.1297142      -0.8671888
2.741                 -0.1326408       -0.867048
2.742                 -0.1355603      -0.8668925
2.743                 -0.1384719      -0.8667226
2.744                 -0.1413764      -0.8665385
2.745                 -0.1442728      -0.8663403
2.746                 -0.1471611      -0.8661286
2.747                 -0.1500412      -0.8659033
2.748                 -0.1529134      -0.8656648
2.749                 -0.1557768      -0.8654134
2.75                   -0.158632      -0.8651493
2.751                 -0.1614785      -0.8648728
2.752                 -0.1643164      -0.8645843
2.753                 -0.1671454      -0.8642839
2.754                 -0.1699657       -0.863972
2.755                  -0.172777       -0.863649
2.756                 -0.1755797       -0.863315
2.757                 -0.1783731      -0.8629704
2.758                 -0.1811579      -0.8626155
2.759                 -0.1839338      -0.8622507
2.76                  -0.1867007       -0.861876
2.761                 -0.1894588       -0.861492
2.762                 -0.1922083      -0.8610989
2.763                 -0.1949489      -0.8606969
2.764                  -0.197681      -0.8602864
2.765                 -0.2004047      -0.8598675
2.766                 -0.2031198      -0.8594407
2.767                 -0.2058269      -0.8590061
2.768                 -0.2085256      -0.8585641
2.769                 -0.2112163      -0.8581147
2.77                  -0.2138994      -0.8576584
2.771                 -0.2165749      -0.8571952
2.772                 -0.2192426      -0.8567255
2.773                 -0.2219033      -0.8562494
2.774                  -0.224557      -0.8557671
2.775                 -0.2272039      -0.8552788
2.776                  -0.229844      -0.8547846
2.777                 -0.2324775      -0.8542847
2.778                  -0.235105      -0.8537793
2.779                 -0.2377265      -0.8532683
2.78                  -0.2403425      -0.8527521
2.781                 -0.2429528      -0.8522305
2.782                 -0.2455581      -0.8517037
2.783                 -0.2481582      -0.8511719
2.784                 -0.2507537      -0.8506349
2.785                 -0.2533447      -0.8500928
2.786                 -0.2559315      -0.8495457
2.787                 -0.2585142      -0.8489935
2.788                 -0.2610932      -0.8484362
2.789                 -0.2636687      -0.8478738
2.79                  -0.2662408      -0.8473062
2.791                 -0.2688102      -0.8467335
2.792                 -0.2713763      -0.8461553
2.793                 -0.2739403      -0.8455717
2.794                 -0.2765015      -0.8449827
2.795                 -0.2790605       -0.844388
2.796                 -0.2816179      -0.8437874
2.797                  -0.284173       -0.843181
2.798                 -0.2867266      -0.8425685
2.799                 -0.2892783      -0.8419497
2.8                   -0.2918288      -0.8413245
2.801                 -0.2943781      -0.8406927
2.802                 -0.2969262       -0.840054
2.803                 -0.2994732      -0.8394084
2.804                 -0.3020194      -0.8387555
2.805                 -0.3045641      -0.8380952
2.806                 -0.3071083      -0.8374273
2.807                 -0.3096517      -0.8367515
2.808                 -0.3121942      -0.8360676
2.809                 -0.3147358      -0.8353754
2.81                  -0.3172767      -0.8346747
2.811                 -0.3198164      -0.8339651
2.812                 -0.3223554      -0.8332466
2.813                 -0.3248934      -0.8325188
2.814                 -0.3274304      -0.8317815
2.815                 -0.3299661      -0.8310346
2.816                 -0.3325007      -0.8302779
2.817                 -0.3350336       -0.829511
2.818                 -0.3375653      -0.8287339
2.819                 -0.3400951      -0.8279462
2.82                  -0.3426229       -0.827148
2.821                 -0.3451488      -0.8263389
2.822                 -0.3476724      -0.8255188
2.823                 -0.3501937      -0.8246876
2.824                 -0.3527121      -0.8238452
2.825                 -0.3552278      -0.8229913
2.826                 -0.3577402       -0.822126
2.827                 -0.3602493      -0.8212491
2.828                 -0.3627547      -0.8203605
2.829                  -0.365256      -0.8194601
2.83                  -0.3677534       -0.818548
2.831                 -0.3702459       -0.817624
2.832                 -0.3727341      -0.8166882
2.833                 -0.3752167      -0.8157406
2.834                 -0.3776945      -0.8147811
2.835                 -0.3801665      -0.8138098
2.836                 -0.3826323      -0.8128271
2.837                  -0.385092      -0.8118324
2.838                 -0.3875454      -0.8108262
2.839                 -0.3899919      -0.8098087
2.84                  -0.3924318      -0.8087795
2.841                 -0.3948639      -0.8077393
2.842                 -0.3972881      -0.8066883
2.843                 -0.3997049      -0.8056262
2.844                 -0.4021133      -0.8045534
2.845                 -0.4045134      -0.8034703
2.846                 -0.4069051      -0.8023768
2.847                 -0.4092877      -0.8012734
2.848                 -0.4116614      -0.8001602
2.849                 -0.4140261      -0.7990374
2.85                  -0.4163809      -0.7979057
2.851                 -0.4187262      -0.7967649
2.852                  -0.421062      -0.7956154
2.853                  -0.423388      -0.7944575
2.854                 -0.4257035       -0.793292
2.855                 -0.4280094      -0.7921184
2.856                 -0.4303049      -0.7909377
2.857                   -0.43259        -0.78975
2.858                 -0.4348651      -0.7885556
2.859                 -0.4371299      -0.7873546
2.86                  -0.4393841      -0.7861481
2.861                  -0.441628      -0.7849358
2.862                 -0.4438617      -0.7837182
2.863                 -0.4460854      -0.7824956
2.864                 -0.4482988      -0.7812684
2.865                 -0.4505018      -0.7800373
2.866                 -0.4526955      -0.7788018
2.867                 -0.4548787      -0.7775632
2.868                 -0.4570524      -0.7763211
2.869                 -0.4592168      -0.7750762
2.87                  -0.4613717      -0.7738286
2.871                 -0.4635175      -0.7725786
2.872                 -0.4656547      -0.7713265
2.873                  -0.467783      -0.7700729
2.874                  -0.469903      -0.7688175
2.875                 -0.4720145      -0.7675611
2.876                 -0.4741184      -0.7663035
2.877                 -0.4762149       -0.765045
2.878                 -0.4783041      -0.7637858
2.879                 -0.4803862      -0.7625262
2.88                  -0.4824618      -0.7612662
2.881                  -0.484531      -0.7600062
2.882                 -0.4865946      -0.7587458
2.883                 -0.4886522      -0.7574856
2.884                 -0.4907048      -0.7562254
2.885                 -0.4927528      -0.7549652
2.886                 -0.4947961      -0.7537051
2.887                 -0.4968354      -0.7524453
2.888                 -0.4988706      -0.7511857
2.889                 -0.5009027       -0.749926
2.89                  -0.5029319      -0.7486661
2.891                 -0.5049583      -0.7474064
2.892                 -0.5069824      -0.7461464
2.893                 -0.5090044      -0.7448861
2.894                  -0.511025      -0.7436252
2.895                 -0.5130442      -0.7423636
2.896                 -0.5150625      -0.7411011
2.897                 -0.5170798      -0.7398378
2.898                 -0.5190969       -0.738573
2.899                 -0.5211141      -0.7373064
2.9                    -0.523131      -0.7360383
2.901                 -0.5251486      -0.7347677
2.902                 -0.5271666      -0.7334948
2.903                 -0.5291855      -0.7322191
2.904                 -0.5312053      -0.7309403
2.905                 -0.5332263       -0.729658
2.906                 -0.5352485      -0.7283719
2.907                 -0.5372725      -0.7270813
2.908                 -0.5392975      -0.7257865
2.909                 -0.5413242      -0.7244866
2.91                  -0.5433527      -0.7231812
2.911                 -0.5453824      -0.7218702
2.912                 -0.5474141      -0.7205529
2.913                 -0.5494473       -0.719229
2.914                  -0.551482      -0.7178983
2.915                 -0.5535181      -0.7165602
2.916                 -0.5555555      -0.7152143
2.917                 -0.5575942        -0.71386
2.918                 -0.5596338      -0.7124974
2.919                 -0.5616745      -0.7111257
2.92                  -0.5637158      -0.7097447
2.921                 -0.5657574      -0.7083541
2.922                  -0.567799      -0.7069537
2.923                 -0.5698407      -0.7055429
2.924                 -0.5718818      -0.7041212
2.925                  -0.573922      -0.7026889
2.926                 -0.5759614      -0.7012451
2.927                  -0.577999      -0.6997901
2.928                 -0.5800347      -0.6983231
2.929                 -0.5820681      -0.6968445
2.93                  -0.5840991      -0.6953535
2.931                 -0.5861267      -0.6938505
2.932                 -0.5881507      -0.6923348
2.933                 -0.5901707      -0.6908067
2.934                 -0.5921862      -0.6892661
2.935                 -0.5941967      -0.6877127
2.936                  -0.596202      -0.6861465
2.937                 -0.5982007       -0.684568
2.938                 -0.6001933      -0.6829765
2.939                  -0.602179      -0.6813723
2.94                  -0.6041572      -0.6797558
2.941                 -0.6061272       -0.678127
2.942                  -0.608089      -0.6764857
2.943                  -0.610042      -0.6748325
2.944                 -0.6119856      -0.6731673
2.945                 -0.6139191      -0.6714907
2.946                 -0.6158428      -0.6698025
2.947                 -0.6177554      -0.6681036
2.948                 -0.6196569      -0.6663938
2.949                 -0.6215469      -0.6646736
2.95                  -0.6234248      -0.6629435
2.951                 -0.6252908      -0.6612039
2.952                 -0.6271439      -0.6594549
2.953                  -0.628984      -0.6576974
2.954                 -0.6308107      -0.6559319
2.955                 -0.6326244      -0.6541583
2.956                  -0.634424      -0.6523777
2.957                 -0.6362096      -0.6505902
2.958                 -0.6379811      -0.6487968
2.959                 -0.6397382      -0.6469977
2.96                  -0.6414813      -0.6451937
2.961                 -0.6432097      -0.6433851
2.962                 -0.6449235      -0.6415728
2.963                 -0.6466229      -0.6397571
2.964                 -0.6483075      -0.6379387
2.965                  -0.649978      -0.6361184
2.966                 -0.6516337      -0.6342967
2.967                 -0.6532757      -0.6324739
2.968                 -0.6549031       -0.630651
2.969                 -0.6565169      -0.6288283
2.97                   -0.658117      -0.6270065
2.971                 -0.6597042      -0.6251858
2.972                 -0.6612779      -0.6233673
2.973                  -0.662839      -0.6215514
2.974                 -0.6643878      -0.6197383
2.975                 -0.6659247      -0.6179287
2.976                   -0.66745       -0.616123
2.977                 -0.6689644      -0.6143219
2.978                 -0.6704681      -0.6125254
2.979                 -0.6719621       -0.610734
2.98                  -0.6734467      -0.6089482
2.981                 -0.6749223      -0.6071683
2.982                 -0.6763896      -0.6053943
2.983                 -0.6778497      -0.6036268
2.984                 -0.6793023      -0.6018659
2.985                 -0.6807485      -0.6001118
2.986                 -0.6821893      -0.5983647
2.987                  -0.683625      -0.5966243
2.988                 -0.6850564      -0.5948912
2.989                  -0.686484      -0.5931653
2.99                  -0.6879087      -0.5914461
2.991                 -0.6893312       -0.589734
2.992                 -0.6907521      -0.5880288
2.993                 -0.6921723      -0.5863301
2.994                 -0.6935921      -0.5846382
2.995                 -0.6950123      -0.5829524
2.996                 -0.6964341      -0.5812724
2.997                 -0.6978573      -0.5795981
2.998                 -0.6992831       -0.577929
2.999                 -0.7007118      -0.5762649
3                     -0.7021441       -0.574605
