! Touchstone file exported from HFSS 2025.2.4
!        File:           C:/Users/aysen/Documents/Ansoft/Patch_Antenna_2p45GHz_Final.aedt
!        Generated:      12:41:07 AM Oct  9, 2026
!        Design:         HFSSDesign1
!        Project:        Patch_Antenna_2p45GHz_Final
!        Setup:          Setup1
!        Solution:       Sweep
!
# GHz S MA R 50.000000
! Terminal data exported
! Port[1] = Patch_T1
1.5                            0.968602096922597 21.3773650152331 
! Gamma         0                0                
! Port Impedance         50               0                
1.505                          0.968360310157134 20.73823866823   
! Gamma         0                0                
! Port Impedance         50               0                
1.51                           0.968116252898339 20.0986792984535 
! Gamma         0                0                
! Port Impedance         50               0                
1.515                          0.96786993120071 19.4586802538117 
! Gamma         0                0                
! Port Impedance         50               0                
1.52                           0.967621350324302 18.8182347869754 
! Gamma         0                0                
! Port Impedance         50               0                
1.525                          0.967370514721038 18.177336051789  
! Gamma         0                0                
! Port Impedance         50               0                
1.53                           0.967117428020254 17.5359770995822 
! Gamma         0                0                
! Port Impedance         50               0                
1.535                          0.966862093013478 16.8941508753782 
! Gamma         0                0                
! Port Impedance         50               0                
1.54                           0.966604511638396 16.2518502139947 
! Gamma         0                0                
! Port Impedance         50               0                
1.545                          0.966344684961988 15.6090678360327 
! Gamma         0                0                
! Port Impedance         50               0                
1.55                           0.966082613162796 14.9657963437501 
! Gamma         0                0                
! Port Impedance         50               0                
1.555                          0.965818295512299 14.3220282168145 
! Gamma         0                0                
! Port Impedance         50               0                
1.56                           0.965551730355364 13.6777558079308 
! Gamma         0                0                
! Port Impedance         50               0                
1.565                          0.965282915089724 13.032971338339  
! Gamma         0                0                
! Port Impedance         50               0                
1.57                           0.965011846144463 12.387666893176  
! Gamma         0                0                
! Port Impedance         50               0                
1.575                          0.964738518957467 11.7418344166982 
! Gamma         0                0                
! Port Impedance         50               0                
1.58                           0.96446292795178 11.0954657073568 
! Gamma         0                0                
! Port Impedance         50               0                
1.585                          0.964185066510856 10.4485524127214 
! Gamma         0                0                
! Port Impedance         50               0                
1.59                           0.96390492695263 9.80108602424593 
! Gamma         0                0                
! Port Impedance         50               0                
1.595                          0.963622500502382 9.15305787186984 
! Gamma         0                0                
! Port Impedance         50               0                
1.6                            0.963337777264331 8.50445911844845 
! Gamma         0                0                
! Port Impedance         50               0                
1.605                          0.963050746191914 7.85528075400525 
! Gamma         0                0                
! Port Impedance         50               0                
1.61                           0.962761395056684 7.20551358979917 
! Gamma         0                0                
! Port Impedance         50               0                
1.615                          0.962469710415791 6.55514825219902 
! Gamma         0                0                
! Port Impedance         50               0                
1.62                           0.962175677577947 5.90417517635726 
! Gamma         0                0                
! Port Impedance         50               0                
1.625                          0.961879280567851 5.25258459967503 
! Gamma         0                0                
! Port Impedance         50               0                
1.63                           0.961580502088971 4.60036655504953 
! Gamma         0                0                
! Port Impedance         50               0                
1.635                          0.961279323484633 3.94751086389478 
! Gamma         0                0                
! Port Impedance         50               0                
1.64                           0.960975724697328 3.29400712892633 
! Gamma         0                0                
! Port Impedance         50               0                
1.645                          0.960669684226164 2.6398447267001  
! Gamma         0                0                
! Port Impedance         50               0                
1.65                           0.960361179082367 1.98501279989466 
! Gamma         0                0                
! Port Impedance         50               0                
1.655                          0.96005018474276 1.32950024932651 
! Gamma         0                0                
! Port Impedance         50               0                
1.66                           0.959736675101102 0.673295725686472 
! Gamma         0                0                
! Port Impedance         50               0                
1.665                          0.959420622417202 0.0163876209857961 
! Gamma         0                0                
! Port Impedance         50               0                
1.67                           0.9591019972637  -0.641235940301096 
! Gamma         0                0                
! Port Impedance         50               0                
1.675                          0.958780768470401 -1.2995871104099 
! Gamma         0                0                
! Port Impedance         50               0                
1.68                           0.958456903066042 -1.95867832778975 
! Gamma         0                0                
! Port Impedance         50               0                
1.685                          0.958130366217368 -2.61852232695107 
! Gamma         0                0                
! Port Impedance         50               0                
1.69                           0.957801121165392 -3.27913214867279 
! Gamma         0                0                
! Port Impedance         50               0                
1.695                          0.957469129158689 -3.94052115058538 
! Gamma         0                0                
! Port Impedance         50               0                
1.7                            0.957134349383579 -4.60270301814592 
! Gamma         0                0                
! Port Impedance         50               0                
1.705                          0.956796738891052 -5.26569177602293 
! Gamma         0                0                
! Port Impedance         50               0                
1.71                           0.956456252520254 -5.92950179990961 
! Gamma         0                0                
! Port Impedance         50               0                
1.715                          0.956112842818372 -6.59414782878466 
! Gamma         0                0                
! Port Impedance         50               0                
1.72                           0.955766459956724 -7.25964497764097 
! Gamma         0                0                
! Port Impedance         50               0                
1.725                          0.955417051642867 -7.92600875070413 
! Gamma         0                0                
! Port Impedance         50               0                
1.73                           0.955064563028502 -8.59325505516255 
! Gamma         0                0                
! Port Impedance         50               0                
1.735                          0.954708936612965 -9.26140021543366 
! Gamma         0                0                
! Port Impedance         50               0                
1.74                           0.95435011214207 -9.93046098799075 
! Gamma         0                0                
! Port Impedance         50               0                
1.745                          0.953988026502049 -10.600454576777 
! Gamma         0                0                
! Port Impedance         50               0                
1.75                           0.953622613608329 -11.271398649234 
! Gamma         0                0                
! Port Impedance         50               0                
1.755                          0.953253804288874 -11.9433113529749 
! Gamma         0                0                
! Port Impedance         50               0                
1.76                           0.952881526161775 -12.6162113331314 
! Gamma         0                0                
! Port Impedance         50               0                
1.765                          0.952505703506803 -13.2901177504089 
! Gamma         0                0                
! Port Impedance         50               0                
1.77                           0.952126257130556 -13.9650502998826 
! Gamma         0                0                
! Port Impedance         50               0                
1.775                          0.951743104224871 -14.6410292305714 
! Gamma         0                0                
! Port Impedance         50               0                
1.78                           0.951356158218106 -15.318075365827 
! Gamma         0                0                
! Port Impedance         50               0                
1.785                          0.950965328618902 -15.99621012458  
! Gamma         0                0                
! Port Impedance         50               0                
1.79                           0.950570520851979 -16.6754555434831 
! Gamma         0                0                
! Port Impedance         50               0                
1.795                          0.950171636085524 -17.3558342999986 
! Gamma         0                0                
! Port Impedance         50               0                
1.8                            0.949768571049687 -18.037369736476 
! Gamma         0                0                
! Port Impedance         50               0                
1.805                          0.949361217845647 -18.7200858852712 
! Gamma         0                0                
! Port Impedance         50               0                
1.81                           0.948949463744719 -19.404007494959 
! Gamma         0                0                
! Port Impedance         50               0                
1.815                          0.948533190976902 -20.0891600576959 
! Gamma         0                0                
! Port Impedance         50               0                
1.82                           0.948112276508236 -20.7755698377926 
! Gamma         0                0                
! Port Impedance         50               0                
1.825                          0.94768659180631 -21.4632639015583 
! Gamma         0                0                
! Port Impedance         50               0                
1.83                           0.947256002593194 -22.1522701484843 
! Gamma         0                0                
! Port Impedance         50               0                
1.835                          0.94682036858504 -22.8426173438371 
! Gamma         0                0                
! Port Impedance         50               0                
1.84                           0.94637954321752 -23.5343351527355 
! Gamma         0                0                
! Port Impedance         50               0                
1.845                          0.945933373356255 -24.2274541757914 
! Gamma         0                0                
! Port Impedance         50               0                
1.85                           0.945481698991271 -24.922005986398 
! Gamma         0                0                
! Port Impedance         50               0                
1.855                          0.945024352914499 -25.618023169755 
! Gamma         0                0                
! Port Impedance         50               0                
1.86                           0.944561160379252 -26.3155393637254 
! Gamma         0                0                
! Port Impedance         50               0                
1.865                          0.944091938740527 -27.0145893016241 
! Gamma         0                0                
! Port Impedance         50               0                
1.87                           0.943616497074899 -27.7152088570459 
! Gamma         0                0                
! Port Impedance         50               0                
1.875                          0.943134635778709 -28.4174350908461 
! Gamma         0                0                
! Port Impedance         50               0                
1.88                           0.942646146143112 -29.1213063003932 
! Gamma         0                0                
! Port Impedance         50               0                
1.885                          0.942150809904496 -29.8268620712252 
! Gamma         0                0                
! Port Impedance         50               0                
1.89                           0.941648398768623 -30.5341433312423 
! Gamma         0                0                
! Port Impedance         50               0                
1.895                          0.941138673906757 -31.2431924075848 
! Gamma         0                0                
! Port Impedance         50               0                
1.9                            0.940621385421908 -31.9540530863489 
! Gamma         0                0                
! Port Impedance         50               0                
1.905                          0.940096271783163 -32.666770675306 
! Gamma         0                0                
! Port Impedance         50               0                
1.91                           0.939563059225936 -33.3813920698023 
! Gamma         0                0                
! Port Impedance         50               0                
1.915                          0.939021461115816 -34.097965822025 
! Gamma         0                0                
! Port Impedance         50               0                
1.92                           0.938471177273473 -34.816542213836 
! Gamma         0                0                
! Port Impedance         50               0                
1.925                          0.937911893257932 -35.5371733333856 
! Gamma         0                0                
! Port Impedance         50               0                
1.93                           0.93734327960529 -36.2599131557363 
! Gamma         0                0                
! Port Impedance         50               0                
1.935                          0.936764991019714 -36.984817627737 
! Gamma         0                0                
! Port Impedance         50               0                
1.94                           0.936176665513338 -37.7119447574118 
! Gamma         0                0                
! Port Impedance         50               0                
1.945                          0.935577923491369 -38.4413547081373 
! Gamma         0                0                
! Port Impedance         50               0                
1.95                           0.934968366778448 -39.1731098979105 
! Gamma         0                0                
! Port Impedance         50               0                
1.955                          0.934347577581985 -39.9072751040211 
! Gamma         0                0                
! Port Impedance         50               0                
1.96                           0.9337151173878  -40.6439175734738 
! Gamma         0                0                
! Port Impedance         50               0                
1.965                          0.933070525783095 -41.3831071395221 
! Gamma         0                0                
! Port Impedance         50               0                
1.97                           0.932413319201291 -42.1249163447063 
! Gamma         0                0                
! Port Impedance         50               0                
1.975                          0.931742989582848 -42.8694205708165 
! Gamma         0                0                
! Port Impedance         50               0                
1.98                           0.931059002945702 -43.6166981762276 
! Gamma         0                0                
! Port Impedance         50               0                
1.985                          0.930360797858379 -44.3668306410921 
! Gamma         0                0                
! Port Impedance         50               0                
1.99                           0.929647783808274 -45.1199027209074 
! Gamma         0                0                
! Port Impedance         50               0                
1.995                          0.928919339456949 -45.8760026090142 
! Gamma         0                0                
! Port Impedance         50               0                
2                              0.92817481077356 -46.6352221086257 
! Gamma         0                0                
! Port Impedance         50               0                
2.005                          0.927413509036793 -47.3976568150289 
! Gamma         0                0                
! Port Impedance         50               0                
2.01                           0.926634708694803 -48.1634063086514 
! Gamma         0                0                
! Port Impedance         50               0                
2.015                          0.925837645071742 -48.9325743597366 
! Gamma         0                0                
! Port Impedance         50               0                
2.02                           0.925021511908444 -49.7052691454301 
! Gamma         0                0                
! Port Impedance         50               0                
2.025                          0.924185458723681 -50.4816034801392 
! Gamma         0                0                
! Port Impedance         50               0                
2.03                           0.92332858798124 -51.2616950600961 
! Gamma         0                0                
! Port Impedance         50               0                
2.035                          0.922449952046635 -52.0456667231277 
! Gamma         0                0                
! Port Impedance         50               0                
2.04                           0.921548549915881 -52.8336467247117 
! Gamma         0                0                
! Port Impedance         50               0                
2.045                          0.920623323697013 -53.6257690314882 
! Gamma         0                0                
! Port Impedance         50               0                
2.05                           0.919673154823356 -54.4221736334837 
! Gamma         0                0                
! Port Impedance         50               0                
2.055                          0.918696859975449 -55.2230068764085 
! Gamma         0                0                
! Port Impedance         50               0                
2.06                           0.917693186686465 -56.0284218154966 
! Gamma         0                0                
! Port Impedance         50               0                
2.065                          0.916660808603461 -56.8385785924758 
! Gamma         0                0                
! Port Impedance         50               0                
2.07                           0.915598320374212 -57.6536448373834 
! Gamma         0                0                
! Port Impedance         50               0                
2.075                          0.914504232126428 -58.4737960970857 
! Gamma         0                0                
! Port Impedance         50               0                
2.08                           0.913376963502935 -59.2992162925084 
! Gamma         0                0                
! Port Impedance         50               0                
2.085                          0.912214837212831 -60.1300982067516 
! Gamma         0                0                
! Port Impedance         50               0                
2.09                           0.91101607205469 -60.9666440064427 
! Gamma         0                0                
! Port Impedance         50               0                
2.095                          0.909778775363565 -61.809065798875 
! Gamma         0                0                
! Port Impedance         50               0                
2.1                            0.908500934828685 -62.6575862276907 
! Gamma         0                0                
! Port Impedance         50               0                
2.105                          0.907180409623491 -63.5124391100986 
! Gamma         0                0                
! Port Impedance         50               0                
2.11                           0.905814920783724 -64.3738701188633 
! Gamma         0                0                
! Port Impedance         50               0                
2.115                          0.904402040762833 -65.2421375125766 
! Gamma         0                0                
! Port Impedance         50               0                
2.12                           0.902939182086771 -66.117512918012 
! Gamma         0                0                
! Port Impedance         50               0                
2.125                          0.901423585022324 -67.0002821686816 
! Gamma         0                0                
! Port Impedance         50               0                
2.13                           0.899852304164326 -67.8907462040611 
! Gamma         0                0                
! Port Impedance         50               0                
2.135                          0.898222193837486 -68.7892220343136 
! Gamma         0                0                
! Port Impedance         50               0                
2.14                           0.896529892197786 -69.6960437757526 
! Gamma         0                0                
! Port Impedance         50               0                
2.145                          0.894771803906657 -70.6115637627085 
! Gamma         0                0                
! Port Impedance         50               0                
2.15                           0.89294408123814 -71.5361537419333 
! Gamma         0                0                
! Port Impedance         50               0                
2.155                          0.891042603464847 -72.4702061561736 
! Gamma         0                0                
! Port Impedance         50               0                
2.16                           0.88906295435289 -73.4141355240772 
! Gamma         0                0                
! Port Impedance         50               0                
2.165                          0.887000397578535 -74.3683799241667 
! Gamma         0                0                
! Port Impedance         50               0                
2.17                           0.884849849860507 -75.3334025912175 
! Gamma         0                0                
! Port Impedance         50               0                
2.175                          0.882605851581087 -76.3096936340156 
! Gamma         0                0                
! Port Impedance         50               0                
2.18                           0.880262534646671 -77.2977718841417 
! Gamma         0                0                
! Port Impedance         50               0                
2.185                          0.87781358731396 -78.2981868861273 
! Gamma         0                0                
! Port Impedance         50               0                
2.19                           0.875252215681618 -79.3115210400485 
! Gamma         0                0                
! Port Impedance         50               0                
2.195                          0.87257110151884 -80.338391908365 
! Gamma         0                0                
! Port Impedance         50               0                
2.2                            0.869762356072189 -81.37945469955  
! Gamma         0                0                
! Port Impedance         50               0                
2.205                          0.866817469460204 -82.4354049417917 
! Gamma         0                0                
! Port Impedance         50               0                
2.21                           0.863727255232118 -83.5069813607505 
! Gamma         0                0                
! Port Impedance         50               0                
2.215                          0.860481789633088 -84.5949689760042 
! Gamma         0                0                
! Port Impedance         50               0                
2.22                           0.857070345084215 -85.7002024313775 
! Gamma         0                0                
! Port Impedance         50               0                
2.225                          0.853481317352539 -86.8235695747894 
! Gamma         0                0                
! Port Impedance         50               0                
2.23                           0.849702145855531 -87.9660153035118 
! Gamma         0                0                
! Port Impedance         50               0                
2.235                          0.845719226518404 -89.1285456907521 
! Gamma         0                0                
! Port Impedance         50               0                
2.24                           0.841517816583572 -90.3122324091797 
! Gamma         0                0                
! Port Impedance         50               0                
2.245                          0.837081930763434 -91.5182174663105 
! Gamma         0                0                
! Port Impedance         50               0                
2.25                           0.832394228135113 -92.7477182654482 
! Gamma         0                0                
! Port Impedance         50               0                
2.255                          0.827435889205202 -94.002033004017 
! Gamma         0                0                
! Port Impedance         50               0                
2.26                           0.822186482631877 -95.2825464184777 
! Gamma         0                0                
! Port Impedance         50               0                
2.265                          0.816623821191715 -96.5907358814274 
! Gamma         0                0                
! Port Impedance         50               0                
2.27                           0.81072380673211 -97.9281778517926 
! Gamma         0                0                
! Port Impedance         50               0                
2.275                          0.804460264074609 -99.296554673075 
! Gamma         0                0                
! Port Impedance         50               0                
2.28                           0.797804764150645 -100.697661707276 
! Gamma         0                0                
! Port Impedance         50               0                
2.285                          0.790726437085518 -102.133414783371 
! Gamma         0                0                
! Port Impedance         50               0                
2.29                           0.783191776531392 -103.605857929113 
! Gamma         0                0                
! Port Impedance         50               0                
2.295                          0.775164437324765 -105.117171343845 
! Gamma         0                0                
! Port Impedance         50               0                
2.3                            0.766605029555283 -106.66967955866 
! Gamma         0                0                
! Port Impedance         50               0                
2.305                          0.757470913435932 -108.265859719998 
! Gamma         0                0                
! Port Impedance         50               0                
2.31                           0.747716001022291 -109.908349926044 
! Gamma         0                0                
! Port Impedance         50               0                
2.315                          0.737290572910048 -111.599957546082 
! Gamma         0                0                
! Port Impedance         50               0                
2.32                           0.726141120618274 -113.343667467594 
! Gamma         0                0                
! Port Impedance         50               0                
2.325                          0.714210228511536 -115.142650254539 
! Gamma         0                0                
! Port Impedance         50               0                
2.33                           0.701436512886288 -117.000270278622 
! Gamma         0                0                
! Port Impedance         50               0                
2.335                          0.687754640278831 -118.920094027871 
! Gamma         0                0                
! Port Impedance         50               0                
2.34                           0.673095452129643 -120.905899041064 
! Gamma         0                0                
! Port Impedance         50               0                
2.345                          0.65738622857054 -122.961684320625 
! Gamma         0                0                
! Port Impedance         50               0                
2.35                           0.640551130080288 -125.091683730719 
! Gamma         0                0                
! Port Impedance         50               0                
2.355                          0.622511861711183 -127.300384932539 
! Gamma         0                0                
! Port Impedance         50               0                
2.36                           0.603188609938953 -129.592558069356 
! Gamma         0                0                
! Port Impedance         50               0                
2.365                          0.582501306084732 -131.973301051967 
! Gamma         0                0                
! Port Impedance         50               0                
2.37                           0.560371271568764 -134.448112509959 
! Gamma         0                0                
! Port Impedance         50               0                
2.375                          0.536723297600226 -137.023010285695 
! Gamma         0                0                
! Port Impedance         50               0                
2.38                           0.511488203809915 -139.704724549787 
! Gamma         0                0                
! Port Impedance         50               0                
2.385                          0.484605905594429 -142.50101348465 
! Gamma         0                0                
! Port Impedance         50               0                
2.39                           0.456028998410948 -145.421182251628 
! Gamma         0                0                
! Port Impedance         50               0                
2.395                          0.425726841344671 -148.476945054882 
! Gamma         0                0                
! Port Impedance         50               0                
2.4                            0.39369009993773 -151.683881608768 
! Gamma         0                0                
! Port Impedance         50               0                
2.405                          0.359935709532509 -155.06396110797 
! Gamma         0                0                
! Port Impedance         50               0                
2.41                           0.324512292879662 -158.650076276168 
! Gamma         0                0                
! Port Impedance         50               0                
2.415                          0.287506327364359 -162.494599444411 
! Gamma         0                0                
! Port Impedance         50               0                
2.42                           0.249050128786875 -166.686633041294 
! Gamma         0                0                
! Port Impedance         50               0                
2.425                          0.20933499825394 -171.390006884873 
! Gamma         0                0                
! Port Impedance         50               0                
2.43                           0.168640329182205 -176.937592601294 
! Gamma         0                0                
! Port Impedance         50               0                
2.435                          0.127418662111936 175.892508611648 
! Gamma         0                0                
! Port Impedance         50               0                
2.44                           0.0866271504903558 164.853005411056 
! Gamma         0                0                
! Port Impedance         50               0                
2.445                          0.0496465324686374 141.086404827712 
! Gamma         0                0                
! Port Impedance         50               0                
2.45                           0.0353018021980805 78.2984111283474 
! Gamma         0                0                
! Port Impedance         50               0                
2.455                          0.0622865047426385 31.6790344935421 
! Gamma         0                0                
! Port Impedance         50               0                
2.46                           0.101467913419857 14.6592185291896 
! Gamma         0                0                
! Port Impedance         50               0                
2.465                          0.142581500103036 5.5030064786205  
! Gamma         0                0                
! Port Impedance         50               0                
2.47                           0.183657592897722 -0.930436300968  
! Gamma         0                0                
! Port Impedance         50               0                
2.475                          0.224000716221192 -6.11563086557402 
! Gamma         0                0                
! Port Impedance         50               0                
2.48                           0.263238380761977 -10.6104784901461 
! Gamma         0                0                
! Port Impedance         50               0                
2.485                          0.301127804811449 -14.667805828934 
! Gamma         0                0                
! Port Impedance         50               0                
2.49                           0.337500445740361 -18.4171043365818 
! Gamma         0                0                
! Port Impedance         50               0                
2.495                          0.372241074427947 -21.9309301883115 
! Gamma         0                0                
! Port Impedance         50               0                
2.5                            0.405277247107846 -25.2529820105788 
! Gamma         0                0                
! Port Impedance         50               0                
2.505                          0.436572231859535 -28.4113112767807 
! Gamma         0                0                
! Port Impedance         50               0                
2.51                           0.46611918754899 -31.4250518158536 
! Gamma         0                0                
! Port Impedance         50               0                
2.515                          0.493935913879781 -34.3080575850404 
! Gamma         0                0                
! Port Impedance         50               0                
2.52                           0.520060013714294 -37.0709573068806 
! Gamma         0                0                
! Port Impedance         50               0                
2.525                          0.544544479058454 -39.7223521398954 
! Gamma         0                0                
! Port Impedance         50               0                
2.53                           0.567453749262527 -42.2695291146155 
! Gamma         0                0                
! Port Impedance         50               0                
2.535                          0.5888602780802  -44.7188920194365 
! Gamma         0                0                
! Port Impedance         50               0                
2.54                           0.608841620074386 -47.0762236411631 
! Gamma         0                0                
! Port Impedance         50               0                
2.545                          0.627478021068867 -49.3468459029393 
! Gamma         0                0                
! Port Impedance         50               0                
2.55                           0.644850477427101 -51.5357177801193 
! Gamma         0                0                
! Port Impedance         50               0                
2.555                          0.661039216143149 -53.6474953281337 
! Gamma         0                0                
! Port Impedance         50               0                
2.56                           0.676122541387434 -55.6865688321858 
! Gamma         0                0                
! Port Impedance         50               0                
2.565                          0.690175991872102 -57.657086374821 
! Gamma         0                0                
! Port Impedance         50               0                
2.57                           0.703271755682613 -59.5629695626463 
! Gamma         0                0                
! Port Impedance         50               0                
2.575                          0.715478293730178 -61.4079249216391 
! Gamma         0                0                
! Port Impedance         50               0                
2.58                           0.726860128656649 -63.195453064533 
! Gamma         0                0                
! Port Impedance         50               0                
2.585                          0.737477762099559 -64.9288568502766 
! Gamma         0                0                
! Port Impedance         50               0                
2.59                           0.747387689183028 -66.6112492052654 
! Gamma         0                0                
! Port Impedance         50               0                
2.595                          0.756642484623863 -68.2455609389265 
! Gamma         0                0                
! Port Impedance         50               0                
2.6                            0.765290939764584 -69.8345486852781 
! Gamma         0                0                
! Port Impedance         50               0                
2.605                          0.773378234102695 -71.3808029875191 
! Gamma         0                0                
! Port Impedance         50               0                
2.61                           0.780946128482526 -72.8867564822518 
! Gamma         0                0                
! Port Impedance         50               0                
2.615                          0.788033170096474 -74.3546921126917 
! Gamma         0                0                
! Port Impedance         50               0                
2.62                           0.794674901871481 -75.7867512926941 
! Gamma         0                0                
! Port Impedance         50               0                
2.625                          0.80090407076764 -77.184941947027 
! Gamma         0                0                
! Port Impedance         50               0                
2.63                           0.806750831061671 -78.5511463626201 
! Gamma         0                0                
! Port Impedance         50               0                
2.635                          0.812242939897337 -79.8871287972031 
! Gamma         0                0                
! Port Impedance         50               0                
2.64                           0.817405943318523 -81.1945428038385 
! Gamma         0                0                
! Port Impedance         50               0                
2.645                          0.822263351711826 -82.4749382412472 
! Gamma         0                0                
! Port Impedance         50               0                
2.65                           0.826836804118952 -83.729767949968 
! Gamma         0                0                
! Port Impedance         50               0                
2.655                          0.831146221272271 -84.9603940830534 
! Gamma         0                0                
! Port Impedance         50               0                
2.66                           0.835209947490242 -86.1680940871814 
! Gamma         0                0                
! Port Impedance         50               0                
2.665                          0.839044881767813 -87.3540663358223 
! Gamma         0                0                
! Port Impedance         50               0                
2.67                           0.842666598530268 -88.5194354206146 
! Gamma         0                0                
! Port Impedance         50               0                
2.675                          0.846089458603044 -89.6652571105193 
! Gamma         0                0                
! Port Impedance         50               0                
2.68                           0.849326710997224 -90.7925229908223 
! Gamma         0                0                
! Port Impedance         50               0                
2.685                          0.852390586130488 -91.9021647957905 
! Gamma         0                0                
! Port Impedance         50               0                
2.69                           0.855292381103683 -92.9950584499043 
! Gamma         0                0                
! Port Impedance         50               0                
2.695                          0.858042537639733 -94.0720278332125 
! Gamma         0                0                
! Port Impedance         50               0                
2.7                            0.860650713268695 -95.1338482865872 
! Gamma         0                0                
! Port Impedance         50               0                
2.705                          0.863125846313753 -96.1812498725921 
! Gamma         0                0                
! Port Impedance         50               0                
2.71                           0.865476215200243 -97.2149204073848 
! Gamma         0                0                
! Port Impedance         50               0                
2.715                          0.867709492575326 -98.2355082786144 
! Gamma         0                0                
! Port Impedance         50               0                
2.72                           0.869832794690942 -99.243625063701 
! Gamma         0                0                
! Port Impedance         50               0                
2.725                          0.871852726468156 -100.239847962228 
! Gamma         0                0                
! Port Impedance         50               0                
2.73                           0.873775422627578 -101.224722055477 
! Gamma         0                0                
! Port Impedance         50               0                
2.735                          0.875606585238666 -102.198762405399 
! Gamma         0                0                
! Port Impedance         50               0                
2.74                           0.877351518010604 -103.162456004588 
! Gamma         0                0                
! Port Impedance         50               0                
2.745                          0.879015157619325 -104.116263588102 
! Gamma         0                0                
! Port Impedance         50               0                
2.75                           0.880602102339059 -105.06062131723 
! Gamma         0                0                
! Port Impedance         50               0                
2.755                          0.882116638222626 -105.99594234467 
! Gamma         0                0                
! Port Impedance         50               0                
2.76                           0.883562763052477 -106.922618269873 
! Gamma         0                0                
! Port Impedance         50               0                
2.765                          0.884944208264062 -107.84102049272 
! Gamma         0                0                
! Port Impedance         50               0                
2.77                           0.886264459024501 -108.751501473079 
! Gamma         0                0                
! Port Impedance         50               0                
2.775                          0.887526772632546 -109.654395903253 
! Gamma         0                0                
! Port Impedance         50               0                
2.78                           0.888734195390357 -110.5500217998  
! Gamma         0                0                
! Port Impedance         50               0                
2.785                          0.889889578083575 -111.438681520717 
! Gamma         0                0                
! Port Impedance         50               0                
2.79                           0.890995590193444 -112.32066271352 
! Gamma         0                0                
! Port Impedance         50               0                
2.795                          0.892054732953158 -113.196239199351 
! Gamma         0                0                
! Port Impedance         50               0                
2.8                            0.893069351350191 -114.065671797828 
! Gamma         0                0                
! Port Impedance         50               0                
2.805                          0.894041645166846 -114.929209097001 
! Gamma         0                0                
! Port Impedance         50               0                
2.81                           0.894973679142747 -115.787088172449 
! Gamma         0                0                
! Port Impedance         50               0                
2.815                          0.895867392335207 -116.639535259219 
! Gamma         0                0                
! Port Impedance         50               0                
2.82                           0.896724606746416 -117.486766380065 
! Gamma         0                0                
! Port Impedance         50               0                
2.825                          0.897547035280057 -118.328987933124 
! Gamma         0                0                
! Port Impedance         50               0                
2.83                           0.898336289084227 -119.166397241976 
! Gamma         0                0                
! Port Impedance         50               0                
2.835                          0.899093884332346 -119.999183070777 
! Gamma         0                0                
! Port Impedance         50               0                
2.84                           0.899821248489061 -120.827526106968 
! Gamma         0                0                
! Port Impedance         50               0                
2.845                          0.900519726103923 -121.651599413845 
! Gamma         0                0                
! Port Impedance         50               0                
2.85                           0.901190584171734 -122.471568855145 
! Gamma         0                0                
! Port Impedance         50               0                
2.855                          0.901835017095038 -123.287593493596 
! Gamma         0                0                
! Port Impedance         50               0                
2.86                           0.902454151281054 -124.099825965256 
! Gamma         0                0                
! Port Impedance         50               0                
2.865                          0.903049049402487 -124.908412831327 
! Gamma         0                0                
! Port Impedance         50               0                
2.87                           0.903620714349108 -125.713494909003 
! Gamma         0                0                
! Port Impedance         50               0                
2.875                          0.904170092894611 -126.51520758278 
! Gamma         0                0                
! Port Impedance         50               0                
2.88                           0.904698079101146 -127.313681097592 
! Gamma         0                0                
! Port Impedance         50               0                
2.885                          0.905205517481996 -128.109040834973 
! Gamma         0                0                
! Port Impedance         50               0                
2.89                           0.905693205941119 -128.901407573431 
! Gamma         0                0                
! Port Impedance         50               0                
2.895                          0.906161898506657 -129.690897734063 
! Gamma         0                0                
! Port Impedance         50               0                
2.9                            0.906612307874103 -130.477623612432 
! Gamma         0                0                
! Port Impedance         50               0                
2.905                          0.907045107773466 -131.261693597588 
! Gamma         0                0                
! Port Impedance         50               0                
2.91                           0.907460935173586 -132.04321237912 
! Gamma         0                0                
! Port Impedance         50               0                
2.915                          0.907860392335673 -132.822281143004 
! Gamma         0                0                
! Port Impedance         50               0                
2.92                           0.908244048727111 -133.598997756993 
! Gamma         0                0                
! Port Impedance         50               0                
2.925                          0.908612442805698 -134.373456946239 
! Gamma         0                0                
! Port Impedance         50               0                
2.93                           0.908966083683642 -135.145750459781 
! Gamma         0                0                
! Port Impedance         50               0                
2.935                          0.90930545267987 -135.915967228483 
! Gamma         0                0                
! Port Impedance         50               0                
2.94                           0.909631004768537 -136.684193515004 
! Gamma         0                0                
! Port Impedance         50               0                
2.945                          0.909943169930968 -137.45051305628 
! Gamma         0                0                
! Port Impedance         50               0                
2.95                           0.910242354417687 -138.215007199037 
! Gamma         0                0                
! Port Impedance         50               0                
2.955                          0.910528941926677 -138.977755028755 
! Gamma         0                0                
! Port Impedance         50               0                
2.96                           0.910803294703503 -139.738833492535 
! Gamma         0                0                
! Port Impedance         50               0                
2.965                          0.911065754568486 -140.498317516231 
! Gamma         0                0                
! Port Impedance         50               0                
2.97                           0.91131664387574 -141.256280116242 
! Gamma         0                0                
! Port Impedance         50               0                
2.975                          0.911556266408439 -142.012792506304 
! Gamma         0                0                
! Port Impedance         50               0                
2.98                           0.911784908214417 -142.767924199596 
! Gamma         0                0                
! Port Impedance         50               0                
2.985                          0.912002838385821 -143.521743106476 
! Gamma         0                0                
! Port Impedance         50               0                
2.99                           0.91221030978626 -144.274315628135 
! Gamma         0                0                
! Port Impedance         50               0                
2.995                          0.912407559728648 -145.025706746424 
! Gamma         0                0                
! Port Impedance         50               0                
3                              0.912594810606651 -145.775980110129 
! Gamma         0                0                
! Port Impedance         50               0                
3.005                          0.912772270482437 -146.525198117912 
! Gamma         0                0                
! Port Impedance         50               0                
3.01                           0.912940133633208 -147.273421998157 
! Gamma         0                0                
! Port Impedance         50               0                
3.015                          0.913098581058807 -148.020711885932 
! Gamma         0                0                
! Port Impedance         50               0                
3.02                           0.913247780952471 -148.767126897266 
! Gamma         0                0                
! Port Impedance         50               0                
3.025                          0.913387889136693 -149.512725200932 
! Gamma         0                0                
! Port Impedance         50               0                
3.03                           0.913519049465926 -150.257564087922 
! Gamma         0                0                
! Port Impedance         50               0                
3.035                          0.913641394197761 -151.001700038779 
! Gamma         0                0                
! Port Impedance         50               0                
3.04                           0.913755044334057 -151.745188788961 
! Gamma         0                0                
! Port Impedance         50               0                
3.045                          0.913860109933376 -152.488085392374 
! Gamma         0                0                
! Port Impedance         50               0                
3.05                           0.913956690395928 -153.230444283252 
! Gamma         0                0                
! Port Impedance         50               0                
3.055                          0.914044874722167 -153.972319336496 
! Gamma         0                0                
! Port Impedance         50               0                
3.06                           0.914124741746006 -154.713763926632 
! Gamma         0                0                
! Port Impedance         50               0                
3.065                          0.914196360343589 -155.454830985511 
! Gamma         0                0                
! Port Impedance         50               0                
3.07                           0.914259789618383 -156.195573058871 
! Gamma         0                0                
! Port Impedance         50               0                
3.075                          0.914315079063328 -156.936042361898 
! Gamma         0                0                
! Port Impedance         50               0                
3.08                           0.914362268700652 -157.676290833894 
! Gamma         0                0                
! Port Impedance         50               0                
3.085                          0.914401389199892 -158.416370192166 
! Gamma         0                0                
! Port Impedance         50               0                
3.09                           0.914432461974567 -159.156331985259 
! Gamma         0                0                
! Port Impedance         50               0                
3.095                          0.914455499257898 -159.896227645626 
! Gamma         0                0                
! Port Impedance         50               0                
3.1                            0.914470504157842 -160.636108541851 
! Gamma         0                0                
! Port Impedance         50               0                
3.105                          0.914477470691691 -161.376026030535 
! Gamma         0                0                
! Port Impedance         50               0                
3.11                           0.914476383800379 -162.116031507928 
! Gamma         0                0                
! Port Impedance         50               0                
3.115                          0.914467219342557 -162.856176461436 
! Gamma         0                0                
! Port Impedance         50               0                
3.12                           0.91444994406847 -163.596512521074 
! Gamma         0                0                
! Port Impedance         50               0                
3.125                          0.914424515573549 -164.337091510989 
! Gamma         0                0                
! Port Impedance         50               0                
3.13                           0.914390882231594 -165.077965501137 
! Gamma         0                0                
! Port Impedance         50               0                
3.135                          0.914348983107331 -165.819186859218 
! Gamma         0                0                
! Port Impedance         50               0                
3.14                           0.914298747848072 -166.560808302973 
! Gamma         0                0                
! Port Impedance         50               0                
3.145                          0.914240096554116 -167.302882952929 
! Gamma         0                0                
! Port Impedance         50               0                
3.15                           0.914172939627468 -168.045464385707 
! Gamma         0                0                
! Port Impedance         50               0                
3.155                          0.914097177598379 -168.78860668799 
! Gamma         0                0                
! Port Impedance         50               0                
3.16                           0.914012700929101 -169.532364511243 
! Gamma         0                0                
! Port Impedance         50               0                
3.165                          0.913919389794217 -170.27679312731 
! Gamma         0                0                
! Port Impedance         50               0                
3.17                           0.913817113836793 -171.021948484972 
! Gamma         0                0                
! Port Impedance         50               0                
3.175                          0.913705731899502 -171.767887267593 
! Gamma         0                0                
! Port Impedance         50               0                
3.18                           0.913585091729812 -172.514666951952 
! Gamma         0                0                
! Port Impedance         50               0                
3.185                          0.913455029658206 -173.262345868383 
! Gamma         0                0                
! Port Impedance         50               0                
3.19                           0.913315370248314 -174.010983262338 
! Gamma         0                0                
! Port Impedance         50               0                
3.195                          0.913165925917734 -174.760639357489 
! Gamma         0                0                
! Port Impedance         50               0                
3.2                            0.913006496528201 -175.5113754205  
! Gamma         0                0                
! Port Impedance         50               0                
3.205                          0.912836868943644 -176.2632538276  
! Gamma         0                0                
! Port Impedance         50               0                
3.21                           0.912656816554572 -177.016338133076 
! Gamma         0                0                
! Port Impedance         50               0                
3.215                          0.912466098767046 -177.770693139841 
! Gamma         0                0                
! Port Impedance         50               0                
3.22                           0.912264460454425 -178.526384972217 
! Gamma         0                0                
! Port Impedance         50               0                
3.225                          0.912051631369859 -179.283481151066 
! Gamma         0                0                
! Port Impedance         50               0                
3.23                           0.91182732551738 179.957949328545 
! Gamma         0                0                
! Port Impedance         50               0                
3.235                          0.911591240479279 179.197835917012 
! Gamma         0                0                
! Port Impedance         50               0                
3.24                           0.911343056697241 178.436106427008 
! Gamma         0                0                
! Port Impedance         50               0                
3.245                          0.911082436704563 177.672686947271 
! Gamma         0                0                
! Port Impedance         50               0                
3.25                           0.910809024306538 176.907501753185 
! Gamma         0                0                
! Port Impedance         50               0                
3.255                          0.91052244370588 176.140473213949 
! Gamma         0                0                
! Port Impedance         50               0                
3.26                           0.910222298569845 175.371521696149 
! Gamma         0                0                
! Port Impedance         50               0                
3.265                          0.909908171035425 174.600565463499 
! Gamma         0                0                
! Port Impedance         50               0                
3.27                           0.909579620648731 173.827520572551 
! Gamma         0                0                
! Port Impedance         50               0                
3.275                          0.909236183234405 173.05230076412  
! Gamma         0                0                
! Port Impedance         50               0                
3.28                           0.908877369690564 172.274817350194 
! Gamma         0                0                
! Port Impedance         50               0                
3.285                          0.908502664704471 171.494979096065 
! Gamma         0                0                
! Port Impedance         50               0                
3.29                           0.908111525383734 170.712692097412 
! Gamma         0                0                
! Port Impedance         50               0                
3.295                          0.907703379797499 169.927859652053 
! Gamma         0                0                
! Port Impedance         50               0                
3.3                            0.907277625421639 169.140382126071 
! Gamma         0                0                
! Port Impedance         50               0                
3.305                          0.906833627481524 168.350156814002 
! Gamma         0                0                
! Port Impedance         50               0                
3.31                           0.906370717185483 167.557077792744 
! Gamma         0                0                
! Port Impedance         50               0                
3.315                          0.905888189841521 166.761035768874 
! Gamma         0                0                
! Port Impedance         50               0                
3.32                           0.905385302849363 165.961917918973 
! Gamma         0                0                
! Port Impedance         50               0                
3.325                          0.904861273559244 165.159607722613 
! Gamma         0                0                
! Port Impedance         50               0                
3.33                           0.904315276988254 164.353984787588 
! Gamma         0                0                
! Port Impedance         50               0                
3.335                          0.903746443384401 163.544924666986 
! Gamma         0                0                
! Port Impedance         50               0                
3.34                           0.903153855627733 162.732298667652 
! Gamma         0                0                
! Port Impedance         50               0                
3.345                          0.902536546457179 161.915973649607 
! Gamma         0                0                
! Port Impedance         50               0                
3.35                           0.901893495510852 161.095811815914 
! Gamma         0                0                
! Port Impedance         50               0                
3.355                          0.901223626166689 160.271670492526 
! Gamma         0                0                
! Port Impedance         50               0                
3.36                           0.900525802169326 159.443401897568 
! Gamma         0                0                
! Port Impedance         50               0                
3.365                          0.899798824028078 158.610852899524 
! Gamma         0                0                
! Port Impedance         50               0                
3.37                           0.899041425169796 157.773864763763 
! Gamma         0                0                
! Port Impedance         50               0                
3.375                          0.898252267829167 156.932272886803 
! Gamma         0                0                
! Port Impedance         50               0                
3.38                           0.897429938657812 156.085906517727 
! Gamma         0                0                
! Port Impedance         50               0                
3.385                          0.89657294403215 155.234588466093 
! Gamma         0                0                
! Port Impedance         50               0                
3.39                           0.895679705038613 154.378134795705 
! Gamma         0                0                
! Port Impedance         50               0                
3.395                          0.894748552113274 153.516354503575 
! Gamma         0                0                
! Port Impedance         50               0                
3.4                            0.893777719311348 152.649049183372 
! Gamma         0                0                
! Port Impedance         50               0                
3.405                          0.892765338180363 151.776012672673 
! Gamma         0                0                
! Port Impedance         50               0                
3.41                           0.891709431209017 150.897030683292 
! Gamma         0                0                
! Port Impedance         50               0                
3.415                          0.890607904821878 150.011880413969 
! Gamma         0                0                
! Port Impedance         50               0                
3.42                           0.889458541888163 149.120330144693 
! Gamma         0                0                
! Port Impedance         50               0                
3.425                          0.888258993710829 148.222138811932 
! Gamma         0                0                
! Port Impedance         50               0                
3.43                           0.88700677146011 147.317055564073 
! Gamma         0                0                
! Port Impedance         50               0                
3.435                          0.88569923701356 146.404819296353 
! Gamma         0                0                
! Port Impedance         50               0                
3.44                           0.884333593162486 145.485158164651 
! Gamma         0                0                
! Port Impedance         50               0                
3.445                          0.882906873142491 144.557789077487 
! Gamma         0                0                
! Port Impedance         50               0                
3.45                           0.88141592944378 143.622417165686 
! Gamma         0                0                
! Port Impedance         50               0                
3.455                          0.87985742185475 142.678735229211 
! Gamma         0                0                
! Port Impedance         50               0                
3.46                           0.878227804690507 141.726423160764 
! Gamma         0                0                
! Port Impedance         50               0                
3.465                          0.876523313156163 140.765147345892 
! Gamma         0                0                
! Port Impedance         50               0                
3.47                           0.874739948793299 139.794560039464 
! Gamma         0                0                
! Port Impedance         50               0                
3.475                          0.872873463956805 138.814298718577 
! Gamma         0                0                
! Port Impedance         50               0                
3.48                           0.870919345268699 137.823985412175 
! Gamma         0                0                
! Port Impedance         50               0                
3.485                          0.868872795995419 136.823226007907 
! Gamma         0                0                
! Port Impedance         50               0                
3.49                           0.866728717295884 135.811609537106 
! Gamma         0                0                
! Port Impedance         50               0                
3.495                          0.864481688289316 134.788707439105 
! Gamma         0                0                
! Port Impedance         50               0                
3.5                            0.862125944894821 133.754072806588 
! Gamma         0                0                
! Port Impedance         50               0                
